DIMENSION :8
NODE_COORD_SECTION
1 -67.15167051481069 42.904890511222476
2 -26.87267780348583 65.30312730896824
3 58.69557537188791 91.36607053579658
4 -38.360702301798845 -52.742517135018076
5 -73.03699658886158 11.755030089498916
6 -83.29839069745933 87.17538395684991
7 -3.24050379336218 -68.72730106254865
8 61.60227520108833 -39.583873024634265
EOF
